10
64
0 1 2 0.62
0 2 4 4.75
0 3 11 1.42
0 4 3 3.87
0 5 15 1.64
0 6 5 0.8
0 7 14 4.41
0 8 13 2.81
0 9 15 1.42
1 2 7 1.6
1 3 2 2.38
1 4 10 3.31
1 5 5 2.1
1 6 14 1.75
1 7 13 1.03
1 8 3 1.03
1 9 11 4.2
2 3 12 3.56
2 4 1 1.25
2 5 4 0.89
2 6 0 1.27
2 7 1 3.13
2 8 2 3
2 9 8 2.63
3 4 13 2
3 5 5 1.75
3 6 14 1.57
3 7 7 1.68
3 8 1 3.96
3 9 2 3.85
4 5 13 4.71
4 6 1 3.57
4 7 7 1.18
4 8 11 4.3
4 9 1 4.06
5 6 3 2.98
5 7 14 1.02
5 8 13 0.44
5 9 1 2.1
6 7 2 2.12
6 8 6 2.84
6 9 13 0.23
7 8 3 2.45
7 9 14 0.62
8 9 4 0.35